!!! Generated by AiiDA !!!
&FORCE_EVAL
   &DFT
      BASIS_SET_FILE_NAME BASIS_MOLOPT
      BASIS_SET_FILE_NAME BASIS_MOLOPT_UCL
      BASIS_SET_FILE_NAME BASIS_ADMM_MOLOPT
      BASIS_SET_FILE_NAME BASIS_ADMM
      CHARGE # complete
      &MGRID
         CUTOFF # complete
         NGRIDS # complete
         REL_CUTOFF # complete
      &END MGRID
      MULTIPLICITY # complete
      POTENTIAL_FILE_NAME # complete
      &PRINT
         &MO_CUBES
            # add line to print in the last step of optimization
            &EACH
               CELL_OPT 0
               GEO_OPT 0
               MD 0
            &END EACH
            NHOMO 1
            NLUMO 1
            WRITE_CUBE # complete
         &END MO_CUBES
         &PDOS
            # add line to print in the last step of optimization
            COMPONENTS .TRUE.
            NLUMO -1
         &END PDOS
         &V_HARTREE_CUBE
            # add line to print in the last step of optimization
            &EACH
               CELL_OPT 0
               GEO_OPT 0
               MD 0
            &END EACH
            STRIDE 1 1 1
         &END V_HARTREE_CUBE
      &END PRINT
      &QS
         METHOD GPW
      &END QS
      &SCF
         EPS_SCF 1e-06
         MAX_ITER_LUMO 5000
         MAX_SCF 50
         &MIXING
            ALPHA 0.4
            BETA 0.5
            METHOD DIRECT_P_MIXING
         &END MIXING
         &OT
            MINIMIZER DIIS
            PRECONDITIONER FULL_KINETIC
         &END OT
         &OUTER_SCF
            EPS_SCF 1e-06
            MAX_SCF 50
            OPTIMIZER DIIS
         &END OUTER_SCF
         SCF_GUESS RESTART
      &END SCF
      UKS # complete
      WFN_RESTART_FILE_NAME aiida-RESTART.wfn
      &XC
         DENSITY_CUTOFF 1e-10
         GRADIENT_CUTOFF 1e-10
         TAU_CUTOFF 1e-10
         &VDW_POTENTIAL
            &PAIR_POTENTIAL
               PARAMETER_FILE_NAME dftd3.dat
               REFERENCE_FUNCTIONAL PBE
               R_CUTOFF 10.0
               TYPE DFTD3(BJ)
            &END PAIR_POTENTIAL
            POTENTIAL_TYPE PAIR_POTENTIAL
         &END VDW_POTENTIAL
         &XC_FUNCTIONAL
            &PBE
               PARAMETRIZATION ORIG
            &END PBE
         &END XC_FUNCTIONAL
      &END XC
   &END DFT
   METHOD QUICKSTEP
   &PRINT
      &FORCES
         &EACH
            CELL_OPT 50
         &END EACH
      &END FORCES
      &STRESS_TENSOR
         &EACH
            CELL_OPT 50
         &END EACH
      &END STRESS_TENSOR
   &END PRINT
   STRESS_TENSOR ANALYTICAL
   &SUBSYS
      &CELL
         A # complete (CAREFUL: you should use now the parameters from the geometry-optimized structure that you got from last step)              
         B # complete            
         C # complete   
      &END CELL
      &KIND C
         BASIS_SET # complete
         ELEMENT C
         POTENTIAL # complete
      &END KIND
      &KIND H
         BASIS_SET DZVP-MOLOPT-SR-GTH-q1
         ELEMENT H
         POTENTIAL GTH-PBE-q1
      &END KIND
      &KIND O
         BASIS_SET DZVP-MOLOPT-SR-GTH-q6
         ELEMENT O
         POTENTIAL GTH-PBE-q6
      &END KIND
      &KIND Zn
         BASIS_SET # complete
         ELEMENT Zn
         POTENTIAL # complete
      &END KIND
      &TOPOLOGY
         COORD_FILE_FORMAT # complete
         COORD_FILE_NAME # complete (CAREFUL: you should use now the geometry-optimized structure that you got from last step)
      &END TOPOLOGY
   &END SUBSYS
&END FORCE_EVAL
&GLOBAL
   PRINT_LEVEL # complete
   PROJECT # complete
   RUN_TYPE # complete
&END GLOBAL
&MOTION
   &CELL_OPT
      EXTERNAL_PRESSURE [bar] 0.0
      KEEP_ANGLES .TRUE.
      KEEP_SYMMETRY .TRUE.
      &LBFGS
         TRUST_RADIUS [angstrom] 0.5
      &END LBFGS
      MAX_DR [bohr] 0.0030
      MAX_FORCE [bohr^-1*hartree] # complete (you can use default value)
      MAX_ITER 1000
      OPTIMIZER BFGS
      PRESSURE_TOLERANCE [bar] 100
      RMS_DR [bohr] 0.0015
      RMS_FORCE [bohr^-1*hartree] # complete (you can use default value)
      TYPE DIRECT_CELL_OPT
   &END CELL_OPT
   &PRINT
      &CELL OFF
      &END CELL
      &FORCES OFF
      &END FORCES
      &RESTART
         BACKUP_COPIES 0
         &EACH
            CELL_OPT 1
            GEO_OPT 1
            MD 1
         &END EACH
      &END RESTART
      &RESTART_HISTORY OFF
      &END RESTART_HISTORY
      &STRESS OFF
      &END STRESS
      &TRAJECTORY
         &EACH
            CELL_OPT 1
            GEO_OPT 1
            MD 1
         &END EACH
         FORMAT DCD_ALIGNED_CELL
      &END TRAJECTORY
      &VELOCITIES OFF
      &END VELOCITIES
   &END PRINT
&END MOTION