!!! Generated by AiiDA !!!
&FORCE_EVAL
   &DFT
      BASIS_SET_FILE_NAME BASIS_MOLOPT
      BASIS_SET_FILE_NAME BASIS_MOLOPT_UCL
      BASIS_SET_FILE_NAME BASIS_ADMM
      BASIS_SET_FILE_NAME BASIS_ADMM_MOLOPT
      CHARGE 0
      &MGRID
         CUTOFF 600
         NGRIDS 4
         REL_CUTOFF 60
      &END MGRID
      MULTIPLICITY 1
      &POISSON
         PERIODIC XYZ
      &END POISSON
      POTENTIAL_FILE_NAME GTH_POTENTIALS
      &PRINT
         &HIRSHFELD OFF
         &END HIRSHFELD
         &LOWDIN OFF
         &END LOWDIN
         &MO_CUBES
            ADD_LAST SYMBOLIC
            &EACH
               CELL_OPT 0
               GEO_OPT 0
               MD 0
            &END EACH
            NHOMO 1
            NLUMO 1
            WRITE_CUBE T
         &END MO_CUBES
         &MULLIKEN ON
            ADD_LAST SYMBOLIC
            &EACH
               CELL_OPT 0
               GEO_OPT 0
            &END EACH
         &END MULLIKEN
      &END PRINT
      &QS
         EPS_DEFAULT 1e-10
         EXTRAPOLATION ASPC
         METHOD GPW
      &END QS
      &SCF
         EPS_SCF 1e-06
         MAX_ITER_LUMO 5000
         MAX_SCF 50
         &MIXING
            ALPHA 0.4
            BETA 0.5
            METHOD DIRECT_P_MIXING
         &END MIXING
         &OT
            MINIMIZER DIIS
            PRECONDITIONER FULL_ALL
         &END OT
         &OUTER_SCF
            EPS_SCF 1e-06
            MAX_SCF 50
         &END OUTER_SCF
         SCF_GUESS ATOMIC
      &END SCF
      UKS .FALSE.
      WFN_RESTART_FILE_NAME ./parent_calc/aiida-RESTART.wfn
      &XC
         DENSITY_CUTOFF 1e-10
         GRADIENT_CUTOFF 1e-10
         TAU_CUTOFF 1e-10
         &VDW_POTENTIAL
            &PAIR_POTENTIAL
               PARAMETER_FILE_NAME dftd3.dat
               REFERENCE_FUNCTIONAL PBE
               R_CUTOFF 10.0
               TYPE DFTD3(BJ)
            &END PAIR_POTENTIAL
            POTENTIAL_TYPE PAIR_POTENTIAL
         &END VDW_POTENTIAL
         &XC_FUNCTIONAL
            &PBE
               PARAMETRIZATION ORIG
            &END PBE
         &END XC_FUNCTIONAL
      &END XC
   &END DFT
   METHOD QUICKSTEP
   STRESS_TENSOR ANALYTICAL
   &SUBSYS
      &CELL
         ABC 7.95400 8.87400 11.60400
         ALPHA_BETA_GAMMA 80.45 72.23 87.21
         PERIODIC  XYZ
         MULTIPLE_UNIT_CELL  2 2 1
      &END CELL
      &KIND C
         BASIS_SET DZVP-MOLOPT-SR-GTH-q4
         BASIS_SET AUX_FIT pFIT3
         ELEMENT C
         MAGNETIZATION 0.0
         POTENTIAL GTH-PBE-q4
      &END KIND
      &KIND H
         BASIS_SET DZVP-MOLOPT-SR-GTH-q1
	 BASIS_SET AUX_FIT pFIT3
         ELEMENT H
         MAGNETIZATION 0.0
         POTENTIAL GTH-PBE-q1
      &END KIND
      &KIND N
         BASIS_SET DZVP-MOLOPT-SR-GTH-q5
	 BASIS_SET AUX_FIT pFIT3
         ELEMENT N
         MAGNETIZATION 0.0
         POTENTIAL GTH-PBE-q5
      &END KIND
      &KIND O
         BASIS_SET DZVP-MOLOPT-GTH
	 ELEMENT O
	 MAGNETIZATION 0.0
         BASIS_SET AUX_FIT pFIT3
         POTENTIAL GTH-PBE-q6
      &END KIND
      &KIND Zn
         BASIS_SET TZVP-MOLOPT-SR-GTH
	 ELEMENT Zn
	 MAGNETIZATION 0.0
         BASIS_SET AUX_FIT cFIT12
         POTENTIAL GTH-PBE-q12
      &END KIND
      &TOPOLOGY
         MULTIPLE_UNIT_CELL  2 2 1
         COORD_FILE_FORMAT XYZ
         COORD_FILE_NAME UTSA_80_cleaned.xyz
      &END TOPOLOGY
   &END SUBSYS
&END FORCE_EVAL
&GLOBAL
   ELPA_KERNEL GENERIC
   PRINT_LEVEL MEDIUM
   PROJECT aiida
   RUN_TYPE CELL_OPT
&END GLOBAL
&MOTION
   &CELL_OPT
      EXTERNAL_PRESSURE [bar] 0.0
      KEEP_ANGLES .FALSE.
      KEEP_SYMMETRY .FALSE.
      &LBFGS
         TRUST_RADIUS [angstrom] 0.5
      &END LBFGS
      MAX_DR [bohr] 0.0030
      MAX_FORCE [bohr^-1*hartree] 0.00045
      MAX_ITER 1000
      OPTIMIZER LBFGS
      PRESSURE_TOLERANCE [bar] 100
      RMS_DR [bohr] 0.0015
      RMS_FORCE [bohr^-1*hartree] 0.00030
      TYPE DIRECT_CELL_OPT
   &END CELL_OPT
   &GEO_OPT
      &BFGS
         TRUST_RADIUS [angstrom] 0.25
      &END BFGS
      MAX_DR [bohr] 0.0030
      MAX_FORCE [bohr^-1*hartree] 0.00045
      MAX_ITER 200
      OPTIMIZER BFGS
      RMS_DR [bohr] 0.0015
      RMS_FORCE [bohr^-1*hartree] 0.00030
      TYPE MINIMIZATION
   &END GEO_OPT
   &PRINT
      &CELL OFF
      &END CELL
      &FORCES OFF
      &END FORCES
      &RESTART
         BACKUP_COPIES 0
         &EACH
            CELL_OPT 1
            GEO_OPT 1
            MD 1
         &END EACH
      &END RESTART
      &RESTART_HISTORY OFF
      &END RESTART_HISTORY
      &STRESS OFF
      &END STRESS
      &TRAJECTORY
         &EACH
            CELL_OPT 1
            GEO_OPT 1
            MD 1
         &END EACH
         FORMAT DCD_ALIGNED_CELL
      &END TRAJECTORY
      &VELOCITIES OFF
      &END VELOCITIES
   &END PRINT
&END MOTION