&FORCE_EVAL
   &DFT
      BASIS_SET_FILE_NAME BASIS_MOLOPT
      BASIS_SET_FILE_NAME BASIS_MOLOPT_UCL
      BASIS_SET_FILE_NAME BASIS_ADMM_MOLOPT
      BASIS_SET_FILE_NAME BASIS_ADMM
      CHARGE 0
      &KPOINTS
         FULL_GRID .TRUE.
         PARALLEL_GROUP_SIZE 0
         SCHEME GAMMA
         SYMMETRY OFF
         WAVEFUNCTIONS COMPLEX
      &END KPOINTS
      &MGRID
         CUTOFF 600
         NGRIDS 5
         REL_CUTOFF 60
      &END MGRID
      MULTIPLICITY 1
      POTENTIAL_FILE_NAME GTH_POTENTIALS
      &PRINT
         &BAND_STRUCTURE
            FILE_NAME acs_co.bs
             &KPOINT_SET
               UNITS B_VECTOR
               SPECIAL_POINT GAMMA     0.0000000000     0.0000000000     0.0000000000
               SPECIAL_POINT     X     0.5000000000     0.0000000000     0.0000000000
               NPOINTS 10
            &END KPOINT_SET
            &KPOINT_SET
               UNITS B_VECTOR
               SPECIAL_POINT     Y     0.0000000000     0.5000000000     0.0000000000
               SPECIAL_POINT GAMMA     0.0000000000     0.0000000000     0.0000000000
               NPOINTS 10
            &END KPOINT_SET
            &KPOINT_SET
               UNITS B_VECTOR
               SPECIAL_POINT GAMMA     0.0000000000     0.0000000000     0.0000000000
               SPECIAL_POINT     Z     0.0000000000     0.0000000000     0.5000000000
               NPOINTS 10
            &END KPOINT_SET
            &KPOINT_SET
               UNITS B_VECTOR
               SPECIAL_POINT   R_2    -0.5000000000    -0.5000000000     0.5000000000
               SPECIAL_POINT GAMMA     0.0000000000     0.0000000000     0.0000000000
               NPOINTS 10
            &END KPOINT_SET
            &KPOINT_SET
               UNITS B_VECTOR
               SPECIAL_POINT GAMMA     0.0000000000     0.0000000000     0.0000000000
               SPECIAL_POINT   T_2     0.0000000000    -0.5000000000     0.5000000000
               NPOINTS 10
            &END KPOINT_SET
            &KPOINT_SET
               UNITS B_VECTOR
               SPECIAL_POINT   U_2    -0.5000000000     0.0000000000     0.5000000000
               SPECIAL_POINT GAMMA     0.0000000000     0.0000000000     0.0000000000
               NPOINTS 10
            &END KPOINT_SET
            &KPOINT_SET
               UNITS B_VECTOR
               SPECIAL_POINT GAMMA     0.0000000000     0.0000000000     0.0000000000
               SPECIAL_POINT   V_2     0.5000000000    -0.5000000000     0.0000000000
               NPOINTS 10
            &END KPOINT_SET
         &END BAND_STRUCTURE
         &HIRSHFELD OFF
         &END HIRSHFELD
         &LOWDIN OFF
         &END LOWDIN
         &MO_CUBES
            ADD_LAST SYMBOLIC
            &EACH
               CELL_OPT 0
               GEO_OPT 0
               MD 0
            &END EACH
            NHOMO 1
            NLUMO 1
            WRITE_CUBE F
         &END MO_CUBES
         &MULLIKEN ON
            ADD_LAST SYMBOLIC
            &EACH
               CELL_OPT 0
               GEO_OPT 0
               MD 0
            &END EACH
         &END MULLIKEN
      &END PRINT
      &QS
         EPS_DEFAULT 1e-10
         EXTRAPOLATION USE_GUESS
         METHOD GPW
      &END QS
      &SCF
         ADDED_MOS 60
         &DIAGONALIZATION
            ALGORITHM STANDARD
            EPS_ADAPT 0.01
         &END DIAGONALIZATION
         EPS_SCF 1e-06
         MAX_SCF 300
         &MIXING
            ALPHA 0.2
            BETA 1.5
            METHOD BROYDEN_MIXING
            NBROYDEN 8
         &END MIXING
      &END SCF
      UKS .FALSE.
      &XC
         &VDW_POTENTIAL
            &PAIR_POTENTIAL
               PARAMETER_FILE_NAME dftd3.dat
               REFERENCE_FUNCTIONAL PBE
               TYPE DFTD3(BJ)
            &END PAIR_POTENTIAL
            POTENTIAL_TYPE PAIR_POTENTIAL
         &END VDW_POTENTIAL
         &XC_FUNCTIONAL
            &PBE
               PARAMETRIZATION ORIG
            &END PBE
         &END XC_FUNCTIONAL
      &END XC
      &POISSON
         PERIODIC XYZ
      &END POISSON
   &END DFT
   METHOD QUICKSTEP
   STRESS_TENSOR ANALYTICAL
   &SUBSYS
      &CELL
            A [angstrom]     0.0165997867    17.0112219009     0.0000000000
            B [angstrom]    13.6945200000     0.0000000000     0.0000000000
            C [angstrom]    -0.0674393847    -8.4530242353   -14.8629062016
         PERIODIC XYZ
      &END CELL
      &COORD
           Al     3.6719667464    18.4582103741    10.8621091103
           Al     3.6338913640    15.4477320621    10.9108594426
           Al     3.6078945059    16.9129174661     8.2880023852
           Al    10.3164329669     6.8891034369     4.2115531013
           Al    10.3577375961     9.8989517832     4.1485343790
           Al    10.4107465439     8.4478678139     6.7764448245
            H     0.8004671759    14.8815458082    13.6903715314
            H    13.2380181878    10.4397138796     1.4149486704
            H     0.8507724733    20.0167000860    14.8508672476
            H    13.2158613901     5.3016838617     0.2739233613
            H     6.8440147716    10.1519525669     1.9244490950
            H     7.1438257066    15.1933283113    13.1468350516
            H     8.9651827853    14.4314603591    14.2584318064
            H     5.0232051209    10.9146721319     0.8125550820
            H     7.3544258913    10.4319242777     8.4966775883
            H     6.6643938022    14.9309521719     6.5777277686
            H     8.2096895598    14.3692306329     5.0663188369
            H     5.7852099513    10.9821497037     9.9878729675
            H     1.4718716287    14.3916306164     6.2357322969
            H    12.5898201024    10.9276401888     8.7826399036
            H    13.3904922373    11.9140966707    10.5924959918
            H     0.6687057305    13.3969420972     4.4206741915
            H    12.6925849974     5.9526523332     8.8465504003
            H     1.2975537410    19.3869513462     6.2186399548
            H     0.3778828750     3.3475305470     4.4538184724
            H    13.6132118650    21.9966724728    10.6095883339
            H     7.3656916011     4.4389751957     5.1256218327
            H     6.6186224126    20.9608921134     9.9752394972
            H     8.0512815991    22.6188851709    10.2412855182
            H     5.9387796822     2.7928191357     4.8555628270
            C     1.9794630848    19.2066310404     8.7191752941
            C     2.0460680392    17.0160571320    12.6727083437
            C     1.9481293171    14.6578047938     8.7744653052
            C     5.2733037757    19.1857681153     8.6298492278
            C     5.2981712488    16.9681439919    12.6321326098
            C     5.2341808261    14.6051369254     8.7315115063
            C     8.7154914043     6.2048538452     6.4637292780
            C     8.6911690278     8.3776535334     2.4373679880
            C     8.7881983530    10.7620821186     6.3415561890
            C    12.0106788700     6.1326292593     6.3469068353
            C    11.9584905758     8.3093788534     2.4061558850
            C    12.0877340646    10.6776775469     6.2535677843
            C     1.1661535323    17.0233613008    13.8296369625
            C     0.4838829924    15.7658910712    14.2385155121
            C    13.2712370735     7.1166544697     0.5982319746
            C    12.8664249272     8.2985956637     1.2709271093
            C    13.5562497704     9.5552798795     0.8678450931
            C     0.7735663725    18.2036522473    14.5119929862
            C     7.8249640274     8.3671750778     1.2640901724
            C     6.8831478239     9.4013961233     1.1371609535
            C     6.0038545644     9.4533262282     0.0664371907
            C     6.1620544580    16.9771696573    13.8073426032
            C     7.1041453922    15.9432032543    13.9344204512
            C     7.9158623219     7.4382489140     0.1422380123
            C     7.8956891373    11.7633001262     6.9121431581
            C     7.1949172611    11.4280134017     8.0888394421
            C     6.3098066183    12.3093287110     8.7240800532
            C     6.1202460955    13.5992434611     8.1601813919
            C     6.8210171416    13.9336796246     6.9834851079
            C     7.6984349174    13.0490655323     6.3430424797
            C     1.0794955903    13.6446080732     8.1998653514
            C     0.9359885674    13.6298402934     6.7965097479
            C    13.6559523425    12.6637535031     6.0567829062
            C    12.9750821699    11.6795938829     6.8191013653
            C    13.1246048941    11.6896883094     8.2211193073
            C     0.4029999658    12.6561988027     8.9612920361
            C    12.9061106349     5.1232165461     6.8904433151
            C    13.1633542307     5.1576219041     8.2726935918
            C     0.2805003934    21.2286883138     8.9062992832
            C     1.0827961260    20.2151097141     8.1751929271
            C     0.8259621726    20.1813013264     6.7924967632
            C    13.7093642886     4.1107452534     6.1588910718
            C     7.8405936379     5.2093637719     7.0628530270
            C     7.1890443882     4.3123837061     6.1912922073
            C     6.3591796872    20.3249876690     6.6407464909
            C     6.1434432794    20.1902509982     8.0372651576
            C     6.7948596199    21.0883341641     8.9095691226
            C     7.6245854977     5.0768385598     8.4593716937
            O     2.4216625992    19.3915731148     9.9126666621
            O     2.4272068878    15.8512948767    12.2410895477
            O     2.3419240058    15.6073021474     7.9766245003
            O     2.2849682801    18.1969635785     7.9644369172
            O     2.2853315836    14.5562860364    10.0137344243
            O     2.3752195034    18.1376173102    12.1409135599
            O     4.9922393820    19.3249722119     9.8891832703
            O     4.9963900239    15.8152652792    12.1352656555
            O     4.9143133705    15.6122301431     7.9781107909
            O     4.8548800992    18.2128726293     7.8913114187
            O     4.8534031821    14.4531516326     9.9547286867
            O     4.9343457804    18.1048144402    12.1568168695
            O     3.6418002778    16.9376596452    10.0214631355
            O     8.9987418173     6.0482877850     5.2073678168
            O     8.9945780217     9.5321635622     2.9299246995
            O     9.1407288611     9.7758685310     7.1074417456
            O     9.1362017927     7.1851072778     7.1900795041
            O     9.1398846212    10.8960723269     5.1079349743
            O     9.0558256089     7.2421665084     2.9147645352
            O    11.5676618552     5.9507481532     5.1537127254
            O    11.5653840928     9.4746142432     2.8242494364
            O    11.7150049494     9.7181561932     7.0478414917
            O    11.7073664787     7.1428060062     7.1019424703
            O    11.7085686603    10.8007490211     5.0288643133
            O    11.6147886091     7.1884450942     2.9291815542
            O    10.3513628853     8.4132559709     5.0438758486
            O    12.8264578133     5.8833359683     1.0082995567
            O     1.2323519340    19.4345534187    14.1120321803
            O     5.0830105896    18.8575712017    14.8464083757
            O     8.9044205781     6.4874529306     0.2253216580
            O     5.5940710531    11.9251130402     9.8347850336
            O     8.4005650363    13.4266836373     5.2219334649
            O    13.5859704897    12.6562830607     4.6824099698
            O     0.4731072268    12.6566988510    10.3344759401
            O     0.4694601495    21.2710864512    10.2652147972
            O    13.5221884617     4.0726855034     4.7998269288
            O     5.7124143029    19.5010572631     5.7489721188
            O     8.2742097361     5.9064026519     9.3454981615
      &END COORD

      &KIND C
         BASIS_SET DZVP-MOLOPT-SR-GTH-q4
         BASIS_SET AUX_FIT pFIT3
         ELEMENT C
         MAGNETIZATION 0.0
         POTENTIAL GTH-PBE-q4
      &END KIND
      &KIND H
         BASIS_SET DZVP-MOLOPT-SR-GTH-q1
         BASIS_SET AUX_FIT pFIT3
         ELEMENT H
         MAGNETIZATION 0.0
         POTENTIAL GTH-PBE-q1
      &END KIND
      &KIND N
         BASIS_SET DZVP-MOLOPT-SR-GTH-q5
         BASIS_SET AUX_FIT pFIT3
         ELEMENT N
         MAGNETIZATION 0.0
         POTENTIAL GTH-PBE-q5
      &END KIND
      &KIND O
         BASIS_SET DZVP-MOLOPT-GTH
         ELEMENT O
         MAGNETIZATION 0.0
         BASIS_SET AUX_FIT pFIT3
         POTENTIAL GTH-PBE-q6
      &END KIND
      &KIND Zn
         BASIS_SET TZVP-MOLOPT-SR-GTH
         ELEMENT Zn
         MAGNETIZATION 0.0
         BASIS_SET AUX_FIT cFIT12
         POTENTIAL GTH-PBE-q12
      &END KIND
      &KIND Al
        BASIS_SET TZVP-MOLOPT-SR-GTH
        BASIS_SET AUX_FIT cFIT8
        POTENTIAL GTH-PBE-q3
      &END KIND


   &END SUBSYS
&END FORCE_EVAL
&GLOBAL
   ELPA_KERNEL GENERIC
   PRINT_LEVEL MEDIUM
   PROJECT aiida
   RUN_TYPE ENERGY
&END GLOBAL
&MOTION
   &PRINT
      &CELL OFF
      &END CELL
      &FORCES OFF
      &END FORCES
      &RESTART
         BACKUP_COPIES 0
         &EACH
            CELL_OPT 1
            GEO_OPT 1
            MD 1
         &END EACH
      &END RESTART
      &RESTART_HISTORY OFF
      &END RESTART_HISTORY
      &STRESS OFF
      &END STRESS
      &TRAJECTORY
         &EACH
            CELL_OPT 1
            GEO_OPT 1
            MD 1
         &END EACH
         FORMAT DCD_ALIGNED_CELL
      &END TRAJECTORY
      &VELOCITIES OFF
      &END VELOCITIES
   &END PRINT
&END MOTION
