!!! Generated by AiiDA !!!
&FORCE_EVAL
   &DFT
      BASIS_SET_FILE_NAME BASIS_MOLOPT
      BASIS_SET_FILE_NAME BASIS_MOLOPT_UCL
      BASIS_SET_FILE_NAME BASIS_ADMM_MOLOPT
      BASIS_SET_FILE_NAME BASIS_ADMM
      CHARGE 0
      &KPOINTS
         FULL_GRID .TRUE.
         PARALLEL_GROUP_SIZE 0
         SCHEME MONKHORST-PACK 1 1 3
         SYMMETRY OFF
         WAVEFUNCTIONS COMPLEX
      &END KPOINTS
      &MGRID
         CUTOFF 600
         NGRIDS 5
         REL_CUTOFF 60
      &END MGRID
      MULTIPLICITY 1
      POTENTIAL_FILE_NAME GTH_POTENTIALS
      &PRINT
         &BAND_STRUCTURE
            FILE_NAME cof.bs
            &KPOINT_SET 
               NPOINTS 10
               SPECIAL_POINT GAMMA 0.0 0.0 0.0
               SPECIAL_POINT X 0.5 0.0 0.0
               UNITS B_VECTOR
            &END KPOINT_SET
            &KPOINT_SET 
               NPOINTS 10
               SPECIAL_POINT Y 0.0 0.5 0.0
               SPECIAL_POINT GAMMA 0.0 0.0 0.0
               UNITS B_VECTOR
            &END KPOINT_SET
            &KPOINT_SET 
               NPOINTS 10
               SPECIAL_POINT GAMMA 0.0 0.0 0.0
               SPECIAL_POINT Z 0.0 0.0 0.5
               UNITS B_VECTOR
            &END KPOINT_SET
            &KPOINT_SET 
               NPOINTS 10
               SPECIAL_POINT R 0.5 0.5 0.5
               SPECIAL_POINT GAMMA 0.0 0.0 0.0
               UNITS B_VECTOR
            &END KPOINT_SET
            &KPOINT_SET 
               NPOINTS 10
               SPECIAL_POINT GAMMA 0.0 0.0 0.0
               SPECIAL_POINT T 0.0 0.5 0.5
               UNITS B_VECTOR
            &END KPOINT_SET
            &KPOINT_SET 
               NPOINTS 10
               SPECIAL_POINT U 0.5 0.0 0.5
               SPECIAL_POINT GAMMA 0.0 0.0 0.0
               UNITS B_VECTOR
            &END KPOINT_SET
            &KPOINT_SET 
               NPOINTS 10
               SPECIAL_POINT GAMMA 0.0 0.0 0.0
               SPECIAL_POINT V 0.5 0.5 0.0
               UNITS B_VECTOR
            &END KPOINT_SET
         &END BAND_STRUCTURE
         &HIRSHFELD OFF
         &END HIRSHFELD
         &LOWDIN OFF
         &END LOWDIN
         &MO_CUBES
            ADD_LAST SYMBOLIC
            &EACH
               CELL_OPT 0
               GEO_OPT 0
               MD 0
            &END EACH
            NHOMO 1
            NLUMO 1
            WRITE_CUBE F
         &END MO_CUBES
         &MULLIKEN ON
            ADD_LAST SYMBOLIC
            &EACH
               CELL_OPT 0
               GEO_OPT 0
               MD 0
            &END EACH
         &END MULLIKEN
      &END PRINT
      &QS
         EPS_DEFAULT 1e-10
         EXTRAPOLATION USE_GUESS
         METHOD GPW
      &END QS
      &SCF
         ADDED_MOS 60
         &DIAGONALIZATION
            ALGORITHM STANDARD
            EPS_ADAPT 0.01
         &END DIAGONALIZATION
         EPS_SCF 1e-06
         MAX_SCF 300
         &MIXING
            ALPHA 0.2
            BETA 1.5
            METHOD BROYDEN_MIXING
            NBROYDEN 8
         &END MIXING
      &END SCF
      UKS .FALSE.
      &XC
         &VDW_POTENTIAL
            &PAIR_POTENTIAL
               PARAMETER_FILE_NAME dftd3.dat
               REFERENCE_FUNCTIONAL PBE
               TYPE DFTD3(BJ)
            &END PAIR_POTENTIAL
            POTENTIAL_TYPE PAIR_POTENTIAL
         &END VDW_POTENTIAL
         &XC_FUNCTIONAL
            &PBE
               PARAMETRIZATION ORIG
            &END PBE
         &END XC_FUNCTIONAL
      &END XC
   &END DFT
   METHOD QUICKSTEP
   STRESS_TENSOR ANALYTICAL
   &SUBSYS
      &CELL
         A 1.4215961799861e-08 7.5410007638353 13.062657427324
         B 14.521651825132 0.0             0.0            
         C 1.6362591237745e-08 15.08308542495  0.0            
      &END CELL
      &KIND C
         BASIS_SET DZVP-MOLOPT-SR-GTH-q4
         MAGNETIZATION 0
         POTENTIAL GTH-PBE-q4
      &END KIND
      &KIND B
         BASIS_SET DZVP-MOLOPT-SR-GTH-q3
         MAGNETIZATION 0
         POTENTIAL GTH-PBE-q3
      &END KIND
      &KIND O
         BASIS_SET DZVP-MOLOPT-SR-GTH-q6
         MAGNETIZATION 0
         POTENTIAL GTH-PBE-q6
      &END KIND
      &KIND H
         BASIS_SET DZVP-MOLOPT-SR-GTH-q1
         MAGNETIZATION 0
         POTENTIAL GTH-PBE-q1
      &END KIND
      &TOPOLOGY
         COORD_FILE_FORMAT XYZ
         COORD_FILE_NAME aiida.coords.xyz
      &END TOPOLOGY
   &END SUBSYS
&END FORCE_EVAL
&GLOBAL
   ELPA_KERNEL GENERIC
   PRINT_LEVEL MEDIUM
   PROJECT aiida
   RUN_TYPE ENERGY
&END GLOBAL
&MOTION
   &PRINT
      &CELL OFF
      &END CELL
      &FORCES OFF
      &END FORCES
      &RESTART
         BACKUP_COPIES 0
         &EACH
            CELL_OPT 1
            GEO_OPT 1
            MD 1
         &END EACH
      &END RESTART
      &RESTART_HISTORY OFF
      &END RESTART_HISTORY
      &STRESS OFF
      &END STRESS
      &TRAJECTORY
         &EACH
            CELL_OPT 1
            GEO_OPT 1
            MD 1
         &END EACH
         FORMAT DCD_ALIGNED_CELL
      &END TRAJECTORY
      &VELOCITIES OFF
      &END VELOCITIES
   &END PRINT
&END MOTION