!!! Generated by AiiDA !!!
&FORCE_EVAL
   &DFT
      BASIS_SET_FILE_NAME BASIS_MOLOPT
      BASIS_SET_FILE_NAME BASIS_MOLOPT_UCL
      BASIS_SET_FILE_NAME BASIS_ADMM_MOLOPT
      BASIS_SET_FILE_NAME BASIS_ADMM
      CHARGE 0
      &KPOINTS
         FULL_GRID .TRUE.
         PARALLEL_GROUP_SIZE 0
         SCHEME MONKHORST-PACK 2 2 1
         SYMMETRY OFF
         WAVEFUNCTIONS COMPLEX
      &END KPOINTS
      &MGRID
         CUTOFF 600
         NGRIDS 5
         REL_CUTOFF 60
      &END MGRID
      MULTIPLICITY 1
      POTENTIAL_FILE_NAME GTH_POTENTIALS
      &PRINT
         &BAND_STRUCTURE
            FILE_NAME UTSA80_bg.bs

            &KPOINT_SET
               UNITS B_VECTOR
               SPECIAL_POINT GAMMA     0.0000000000     0.0000000000     0.0000000000
               SPECIAL_POINT     X     0.5000000000     0.0000000000     0.0000000000
               NPOINTS 20
            &END KPOINT_SET
            &KPOINT_SET
               UNITS B_VECTOR
               SPECIAL_POINT     Y     0.0000000000     0.5000000000     0.0000000000
               SPECIAL_POINT GAMMA     0.0000000000     0.0000000000     0.0000000000
               NPOINTS 20
            &END KPOINT_SET
            &KPOINT_SET
               UNITS B_VECTOR
               SPECIAL_POINT GAMMA     0.0000000000     0.0000000000     0.0000000000
               SPECIAL_POINT     Z     0.0000000000     0.0000000000     0.5000000000
               NPOINTS 20
            &END KPOINT_SET
            &KPOINT_SET
               UNITS B_VECTOR
               SPECIAL_POINT     R     0.5000000000     0.5000000000     0.5000000000
               SPECIAL_POINT GAMMA     0.0000000000     0.0000000000     0.0000000000
               NPOINTS 20
            &END KPOINT_SET
            &KPOINT_SET
               UNITS B_VECTOR
               SPECIAL_POINT GAMMA     0.0000000000     0.0000000000     0.0000000000
               SPECIAL_POINT     T     0.0000000000     0.5000000000     0.5000000000
               NPOINTS 20
            &END KPOINT_SET
            &KPOINT_SET
               UNITS B_VECTOR
               SPECIAL_POINT     U     0.5000000000     0.0000000000     0.5000000000
               SPECIAL_POINT GAMMA     0.0000000000     0.0000000000     0.0000000000
               NPOINTS 20
            &END KPOINT_SET
            &KPOINT_SET
               UNITS B_VECTOR
               SPECIAL_POINT GAMMA     0.0000000000     0.0000000000     0.0000000000
               SPECIAL_POINT     V     0.5000000000     0.5000000000     0.0000000000
               NPOINTS 20
            &END KPOINT_SET
         &END BAND_STRUCTURE
         &HIRSHFELD OFF
         &END HIRSHFELD
         &LOWDIN OFF
         &END LOWDIN
         &MO_CUBES
            ADD_LAST SYMBOLIC
            &EACH
               CELL_OPT 0
               GEO_OPT 0
               MD 0
            &END EACH
            NHOMO 1
            NLUMO 1
            WRITE_CUBE F
         &END MO_CUBES
         &MULLIKEN ON
            ADD_LAST SYMBOLIC
            &EACH
               CELL_OPT 0
               GEO_OPT 0
               MD 0
            &END EACH
         &END MULLIKEN
      &END PRINT
      &QS
         EPS_DEFAULT 1e-10
         EXTRAPOLATION USE_GUESS
         METHOD GPW
      &END QS
      &SCF
         ADDED_MOS 60
         &DIAGONALIZATION
            ALGORITHM STANDARD
            EPS_ADAPT 0.01
         &END DIAGONALIZATION
         EPS_SCF 1e-06
         MAX_SCF 300
         &MIXING
            ALPHA 0.2
            BETA 1.5
            METHOD BROYDEN_MIXING
            NBROYDEN 8
         &END MIXING
      &END SCF
      UKS .FALSE.
      &XC
         &VDW_POTENTIAL
            &PAIR_POTENTIAL
               PARAMETER_FILE_NAME dftd3.dat
               REFERENCE_FUNCTIONAL PBE
               TYPE DFTD3(BJ)
            &END PAIR_POTENTIAL
            POTENTIAL_TYPE PAIR_POTENTIAL
         &END VDW_POTENTIAL
         &XC_FUNCTIONAL
            &PBE
               PARAMETRIZATION ORIG
            &END PBE
         &END XC_FUNCTIONAL
      &END XC
   &END DFT
   METHOD QUICKSTEP
   STRESS_TENSOR ANALYTICAL
   &SUBSYS
      &CELL
            A [angstrom]    -0.8378798982    -9.4550724107     0.0000000000
            B [angstrom]    -7.6115100000     0.0000000000     0.0000000000
            C [angstrom]    -3.6620463982    -1.6238059509    -9.4541635630       
      &END CELL
      &COORD
            C     7.4398386936     7.5813911922     2.3117084390
            C     8.0069918690     6.4801108592     1.5046774019
            C     0.8038349657     6.6617125799     0.1723021309
            C     8.1081098611     5.1994661122     2.0664438008
            C     4.9496286878     7.2245929609     8.8732761183
            C     0.9743613194     4.1246631168     1.3260409814
            C     5.0308034886     5.9341664791     9.4444257746
            C     8.1731520940     4.5990933371     6.5110115396
            C     9.2225000725     5.4260245640     5.8762353626
            C     8.8600504704     6.3954347383     4.9298263191
            C     2.9786497387     5.2561912185     6.1720088697
            C     9.8145171423     7.1880061807     4.2992336095
            C     3.9423377497     6.0279376583     5.5429288262
            C     3.5649245085     7.0231936328     4.6085502059
            C     4.2316733158     8.2018162841     0.3312029850
            C     4.4467407013     6.7575401003     0.6344452813
            C     8.7680902255     7.5408624108     9.1732803636
            C     3.9801861352     6.2063824546     1.8308224094
            C     8.9607530934     6.1955212783     9.4500273665
            C     4.1637944858     4.8572245048     2.1216797514
            C     4.8186431352     4.0304118713     1.1986933982
            C     3.3487396137     1.5745137162     6.0612769789
            C     3.1963715751     2.3954734462     4.9265646327
            C     2.0384465354     2.3158381986     4.1593119887
            C     8.6257986351     1.4134281552     4.4842752258
            C     9.6107047129    10.0707793999     5.6342796816
            C    10.7604514371    10.1419689554     6.4071339175
            C     7.7832058257     1.4323611665     4.3839429150
            H     5.6855590588     2.1985027413     0.8910312804
            H     5.9762025539     5.0898336964     7.7998503874
            H     5.4758678200     7.3882758663     3.8875284217
            H     1.5904051247     1.4997532581     0.2363777245
            H     3.0134800720     2.2999124511     0.5431416967
            H     3.7277083989     9.5614531401     3.5846170212
            H     3.8239102266     8.5199626236     2.2817860114
            H     5.5571831767     3.1978734435     6.1246907810
            H     5.9870384289     1.6652390394     5.5650279335
            H     5.4790243996    10.3274429488     7.4875557295
            H     3.9614773905     2.2662857530     3.1163522999
            H     5.5271672607     2.7778097446     3.3137315997
            H     4.3931209388     9.2875061077     9.2082844042
            H     7.7968486746     5.0596573520     3.0993584409
            H     5.2686340586     7.3721234321     7.8434813522
            H     1.0120480030     3.1439927715     1.7923675991
            H     7.8153575579     6.5177667765     4.6632898129
            H     3.2749422585     4.5146934056     6.9114190019
            H     9.4875891191     7.9256794682     3.5708612132
            H     4.9996610920     5.8932901826     5.7674888462
            H     9.1350590021     7.9570656507     8.2395871701
            H     3.4142087291     6.8194801328     2.5257270667
            H     9.4830777610     5.5576202216     8.7420050573
            H     3.7658387608     4.4679247484     3.0545693410
            H     3.9584370683     3.1268595235     4.6735475803
            H     1.8938256387     2.9684339219     3.2978249695
            H     8.8263804700     9.3656504698     5.8973181474
            H    10.8583140013     9.5064137393     7.2852602646
            N     4.9094377549     2.6291393604     1.3953163649
            N     5.4392151414     4.8644809386     8.6504178477
            N     4.5743503805     7.8301835472     4.1067704747
            N     5.9860643376     3.6953829738     9.2596677831
            N     4.3118138380     8.8415516844     3.1442657178
            N     5.6785217388     2.2140573847     6.3957180150
            N     4.4557858365     1.6859141534     6.9030993380
            N     4.9132085081     2.1743197051     2.7490816809
            O     7.1615933255     7.3796383994     3.5322645904
            O     7.2293595300     8.7378357010     1.7507220086
            O     8.5690171465     3.6412592027     7.3062721432
            O     6.9478018713     4.8363323566     6.2732629614
            O     8.1587184180    10.1557186945     8.5490692143
            O     3.8149369004     9.0047533179     1.2057367500
            O     7.8366695220     1.8468326884     3.2020779280
            O     7.5655689360    10.2773246829     4.8707377969
           Zn     6.4455037900     9.7632870754     3.2645935845
           Zn     7.0823010305     2.5199922910     7.9303178445
      &END COORD
      &KIND C
         BASIS_SET DZVP-MOLOPT-SR-GTH-q4
         MAGNETIZATION 0
         POTENTIAL GTH-PBE-q4
      &END KIND
      &KIND B
         BASIS_SET DZVP-MOLOPT-SR-GTH-q3
         MAGNETIZATION 0
         POTENTIAL GTH-PBE-q3
      &END KIND
      &KIND O
         BASIS_SET DZVP-MOLOPT-SR-GTH-q6
         MAGNETIZATION 0
         POTENTIAL GTH-PBE-q6
      &END KIND
      &KIND H
         BASIS_SET DZVP-MOLOPT-SR-GTH-q1
         MAGNETIZATION 0
         POTENTIAL GTH-PBE-q1
      &END KIND
      &KIND N
         BASIS_SET DZVP-MOLOPT-SR-GTH-q5
         BASIS_SET AUX_FIT pFIT3
         ELEMENT N
         MAGNETIZATION 0.0
         POTENTIAL GTH-PBE-q5
      &END KIND
      &KIND Zn
         BASIS_SET TZVP-MOLOPT-SR-GTH
         ELEMENT Zn
         MAGNETIZATION 0.0
         BASIS_SET AUX_FIT cFIT12
         POTENTIAL GTH-PBE-q12
      &END KIND

   &END SUBSYS
&END FORCE_EVAL
&GLOBAL
   ELPA_KERNEL GENERIC
   PRINT_LEVEL MEDIUM
   PROJECT UTSA80_bg
   RUN_TYPE ENERGY
&END GLOBAL
&MOTION
   &PRINT
      &CELL OFF
      &END CELL
      &FORCES OFF
      &END FORCES
      &RESTART
         BACKUP_COPIES 0
         &EACH
            CELL_OPT 1
            GEO_OPT 1
            MD 1
         &END EACH
      &END RESTART
      &RESTART_HISTORY OFF
      &END RESTART_HISTORY
      &STRESS OFF
      &END STRESS
      &TRAJECTORY
         &EACH
            CELL_OPT 1
            GEO_OPT 1
            MD 1
         &END EACH
         FORMAT DCD_ALIGNED_CELL
      &END TRAJECTORY
      &VELOCITIES OFF
      &END VELOCITIES
   &END PRINT
&END MOTION
