!!! Generated by AiiDA !!!
&FORCE_EVAL
   &DFT
      BASIS_SET_FILE_NAME BASIS_MOLOPT
      BASIS_SET_FILE_NAME BASIS_MOLOPT_UCL
      CHARGE # complete
      &MGRID
         CUTOFF # complete
         NGRIDS # complete
         REL_CUTOFF # complete
      &END MGRID
      MULTIPLICITY # complete
      &POISSON
         PERIODIC XYZ
      &END POISSON
      POTENTIAL_FILE_NAME # complete 
      &PRINT
         &MO_CUBES
            NHOMO 1
            NLUMO 1
            STRIDE 1 1 1
         &END MO_CUBES
         &PDOS
            COMPONENTS T
            FILENAME PDOS
            NLUMO -1
         &END PDOS
         &V_HARTREE_CUBE
            STRIDE 1 1 1
         &END V_HARTREE_CUBE
      &END PRINT
      &QS
         EPS_DEFAULT 1e-38
         METHOD GPW
      &END QS
      &SCF
         EPS_LUMO 1e-06
         EPS_SCF 1e-06
         MAX_ITER_LUMO 5000
         MAX_SCF 50
         &OT
            MINIMIZER CG
            PRECONDITIONER FULL_KINETIC
         &END OT
         &OUTER_SCF
            EPS_SCF 1e-06
            MAX_SCF 50
            OPTIMIZER DIIS
         &END OUTER_SCF
         &PRINT
            &RESTART SILENT
               BACKUP_COPIES 0
            &END RESTART
         &END PRINT
         SCF_GUESS ATOMIC
      &END SCF
      UKS # complete
      &XC
         &VDW_POTENTIAL
            DISPERSION_FUNCTIONAL PAIR_POTENTIAL
            &PAIR_POTENTIAL
               D3_SCALING 1.0 1.324 0.0
               PARAMETER_FILE_NAME dftd3.dat
               REFERENCE_FUNCTIONAL # complete
               R_CUTOFF 40.0
               TYPE DFTD3
            &END PAIR_POTENTIAL
         &END VDW_POTENTIAL
         &XC_FUNCTIONAL
            &LIBXC
               FUNCTIONAL MGGA_X_SCAN
            &END LIBXC
         &END XC_FUNCTIONAL
      &END XC
   &END DFT
   METHOD QUICKSTEP
   STRESS_TENSOR ANALYTICAL
   &SUBSYS
      &CELL
         A # complete (CAREFUL: you should use now the parameters from the geometry-optimized structure that you got from last step)            
         B # complete           
         C # complete
      &END CELL
      &KIND C
         BASIS_SET # complete
         ELEMENT C
         POTENTIAL # complete
      &END KIND
      &KIND H
         BASIS_SET DZVP-MOLOPT-SR-GTH-q1
         ELEMENT H
         POTENTIAL GTH-PBE-q1
      &END KIND
      &KIND O
         BASIS_SET DZVP-MOLOPT-SR-GTH-q6
         ELEMENT O
         POTENTIAL GTH-PBE-q6
      &END KIND
      &KIND Zn
         BASIS_SET # complete
         ELEMENT Zn
         POTENTIAL # complete
      &END KIND
      &TOPOLOGY
         COORD_FILE_FORMAT # complete
         COORD_FILE_NAME # complete (CAREFUL: you should use now the geometry-optimized structure that you got from last step) 
      &END TOPOLOGY
   &END SUBSYS
&END FORCE_EVAL
&GLOBAL
   PRINT_LEVEL # complete
   PROJECT # complete
   RUN_TYPE # complete
&END GLOBAL
&MOTION
   &PRINT
      &CELL OFF
      &END CELL
      &FORCES OFF
      &END FORCES
      &RESTART
         BACKUP_COPIES 0
         &EACH
            CELL_OPT 1
            GEO_OPT 1
            MD 1
         &END EACH
      &END RESTART
      &RESTART_HISTORY OFF
      &END RESTART_HISTORY
      &STRESS OFF
      &END STRESS
      &TRAJECTORY
         &EACH
            CELL_OPT 1
            GEO_OPT 1
            MD 1
         &END EACH
         FORMAT DCD_ALIGNED_CELL
      &END TRAJECTORY
      &VELOCITIES OFF
      &END VELOCITIES
   &END PRINT
&END MOTION