!!! Generated by AiiDA !!!
&FORCE_EVAL
   &DFT
      &AUXILIARY_DENSITY_MATRIX_METHOD
         ADMM_PURIFICATION_METHOD # complete (you can use default)
         METHOD BASIS_PROJECTION
      &END AUXILIARY_DENSITY_MATRIX_METHOD
      BASIS_SET_FILE_NAME BASIS_MOLOPT
      BASIS_SET_FILE_NAME BASIS_MOLOPT_UCL
      BASIS_SET_FILE_NAME BASIS_ADMM_MOLOPT
      BASIS_SET_FILE_NAME BASIS_ADMM
      CHARGE # complete
      &MGRID
         CUTOFF # complete
         NGRIDS # complete
         REL_CUTOFF # complete
      &END MGRID
      MULTIPLICITY # complete
      &POISSON
         PERIODIC XYZ
      &END POISSON
      POTENTIAL_FILE_NAME # complete
      &PRINT
         &MO_CUBES
            NHOMO 1
            NLUMO 1
            STRIDE 1 1 1
         &END MO_CUBES
         &PDOS
            COMPONENTS T
            FILENAME PDOS
            NLUMO -1
         &END PDOS
         &V_HARTREE_CUBE
            STRIDE 1 1 1
         &END V_HARTREE_CUBE
      &END PRINT
      &QS
         EPS_PGF_ORB 1e-12
         METHOD GPW
      &END QS
      &SCF
         EPS_LUMO 1e-06
         EPS_SCF 1e-06
         MAX_ITER_LUMO 5000
         MAX_SCF 50
         &OT
            MINIMIZER CG
            PRECONDITIONER FULL_KINETIC
         &END OT
         &OUTER_SCF
            EPS_SCF 1e-06
            MAX_SCF 50
            OPTIMIZER DIIS
         &END OUTER_SCF
         &PRINT
            &RESTART SILENT
               BACKUP_COPIES 0
            &END RESTART
         &END PRINT
         SCF_GUESS RESTART
      &END SCF
      UKS .FALSE.
      WFN_RESTART_FILE_NAME aiida-RESTART.wfn
      &XC
         &HF
            FRACTION 0.25
            &INTERACTION_POTENTIAL
               CUTOFF_RADIUS 4.7
               POTENTIAL_TYPE TRUNCATED
               T_C_G_DATA t_c_g.dat
            &END INTERACTION_POTENTIAL
            &MEMORY
               EPS_STORAGE_SCALING 0.1
               MAX_MEMORY 900
            &END MEMORY
            &SCREENING
               EPS_SCHWARZ 1e-06
               SCREEN_ON_INITIAL_P .FALSE.
            &END SCREENING
         &END HF
         &VDW_POTENTIAL
            DISPERSION_FUNCTIONAL PAIR_POTENTIAL
            &PAIR_POTENTIAL
               D3_SCALING 1.0 1.324 0.0
               PARAMETER_FILE_NAME dftd3.dat
               REFERENCE_FUNCTIONAL # complete
               R_CUTOFF 40.0
               TYPE DFTD3
            &END PAIR_POTENTIAL
         &END VDW_POTENTIAL
         &XC_FUNCTIONAL
            &PBE
               SCALE_C 1.0
               SCALE_X 0.0
            &END PBE
            &XWPBE
               OMEGA 0.11
               SCALE_X -0.25
               SCALE_X0 1.0
            &END XWPBE
         &END XC_FUNCTIONAL
      &END XC
   &END DFT
   METHOD QUICKSTEP
   STRESS_TENSOR ANALYTICAL
   &SUBSYS
      &CELL
         A # complete (CAREFUL: you should use now the parameters from the geometry-optimized structure that you got from last step)           
         B # complete            
         C # complete
      &END CELL
      &KIND C
         BASIS_SET # complete
         BASIS_SET AUX_FIT pFIT3
         ELEMENT C
         POTENTIAL # complete
      &END KIND
      &KIND H
         BASIS_SET DZVP-MOLOPT-SR-GTH-q1
         BASIS_SET AUX_FIT pFIT3
         ELEMENT H
         POTENTIAL GTH-PBE-q1
      &END KIND
      &KIND O
         BASIS_SET # complete
         BASIS_SET AUX_FIT pFIT3
         ELEMENT O
         POTENTIAL # complete
      &END KIND
      &KIND Zn
         BASIS_SET # complete
         BASIS_SET AUX_FIT cFIT12
         ELEMENT Zn
         POTENTIAL # complete
      &END KIND
      &TOPOLOGY
         COORD_FILE_FORMAT # complete
         COORD_FILE_NAME # complete (CAREFUL: you should use now the geometry-optimized structure that you got from last step)
      &END TOPOLOGY
   &END SUBSYS
&END FORCE_EVAL
&GLOBAL
   PRINT_LEVEL # complete
   PROJECT # complete
   RUN_TYPE # complete
&END GLOBAL
&MOTION
   &PRINT
      &CELL OFF
      &END CELL
      &FORCES OFF
      &END FORCES
      &RESTART
         BACKUP_COPIES 0
         &EACH
            CELL_OPT 1
            GEO_OPT 1
            MD 1
         &END EACH
      &END RESTART
      &RESTART_HISTORY OFF
      &END RESTART_HISTORY
      &STRESS OFF
      &END STRESS
      &TRAJECTORY
         &EACH
            CELL_OPT 1
            GEO_OPT 1
            MD 1
         &END EACH
         FORMAT DCD_ALIGNED_CELL
      &END TRAJECTORY
      &VELOCITIES OFF
      &END VELOCITIES
   &END PRINT
&END MOTION